Linear/lin_ivlbc_6.txt
29 seconds 
<gurobi.Var p0_0_4 (value 1.0)>
<gurobi.Var p0_1_5 (value 1.0)>
<gurobi.Var p0_1_6 (value 1.0)>
<gurobi.Var p0_1_7 (value 1.0)>
<gurobi.Var p0_2_0 (value 1.0)>
<gurobi.Var p0_2_2 (value 1.0)>
<gurobi.Var p0_2_3 (value 1.0)>
<gurobi.Var p0_2_8 (value 1.0)>
<gurobi.Var p0_2_9 (value 1.0)>
<gurobi.Var p0_2_10 (value 1.0)>
<gurobi.Var p0_2_12 (value 1.0)>
<gurobi.Var p0_2_13 (value 1.0)>
<gurobi.Var p0_2_15 (value 1.0)>
<gurobi.Var p0_3_1 (value 1.0)>
<gurobi.Var p0_3_11 (value 1.0)>
<gurobi.Var p0_3_14 (value 1.0)>
<gurobi.Var p0_4_4 (value 1.0)>
<gurobi.Var p0_5_5 (value 1.0)>
<gurobi.Var p0_5_6 (value 1.0)>
<gurobi.Var p0_5_7 (value 1.0)>
<gurobi.Var x0_16 (value 1.0)>
<gurobi.Var A0_4 (value 1.0)>
<gurobi.Var y0_17 (value 1.0)>
<gurobi.Var y0_19 (value 1.0)>
<gurobi.Var z0_17 (value 1.0)>
<gurobi.Var z0_19 (value 1.0)>
<gurobi.Var x1_21 (value 1.0)>
<gurobi.Var d0_43 (value 1.0)>
<gurobi.Var x1_23 (value 1.0)>
<gurobi.Var d0_47 (value 1.0)>
<gurobi.Var x1_25 (value 1.0)>
<gurobi.Var d0_51 (value 1.0)>
<gurobi.Var x1_27 (value 1.0)>
<gurobi.Var d0_55 (value 1.0)>
<gurobi.Var x1_29 (value 1.0)>
<gurobi.Var d0_59 (value 1.0)>
<gurobi.Var x1_31 (value 1.0)>
<gurobi.Var d0_63 (value 1.0)>
<gurobi.Var A1_5 (value 1.0)>
<gurobi.Var y1_21 (value 1.0)>
<gurobi.Var y1_23 (value 1.0)>
<gurobi.Var A1_6 (value 1.0)>
<gurobi.Var y1_25 (value 1.0)>
<gurobi.Var y1_27 (value 1.0)>
<gurobi.Var A1_7 (value 1.0)>
<gurobi.Var y1_29 (value 1.0)>
<gurobi.Var y1_31 (value 1.0)>
<gurobi.Var z1_5 (value 1.0)>
<gurobi.Var z1_7 (value 1.0)>
<gurobi.Var z1_45 (value 1.0)>
<gurobi.Var z1_47 (value 1.0)>
<gurobi.Var z1_57 (value 1.0)>
<gurobi.Var z1_59 (value 1.0)>
<gurobi.Var x2_1 (value 1.0)>
<gurobi.Var d1_3 (value 1.0)>
<gurobi.Var x2_3 (value 1.0)>
<gurobi.Var d1_7 (value 1.0)>
<gurobi.Var x2_9 (value 1.0)>
<gurobi.Var d1_19 (value 1.0)>
<gurobi.Var x2_11 (value 1.0)>
<gurobi.Var d1_23 (value 1.0)>
<gurobi.Var x2_13 (value 1.0)>
<gurobi.Var d1_27 (value 1.0)>
<gurobi.Var x2_15 (value 1.0)>
<gurobi.Var d1_31 (value 1.0)>
<gurobi.Var x2_33 (value 1.0)>
<gurobi.Var d1_67 (value 1.0)>
<gurobi.Var x2_35 (value 1.0)>
<gurobi.Var d1_71 (value 1.0)>
<gurobi.Var x2_37 (value 1.0)>
<gurobi.Var d1_75 (value 1.0)>
<gurobi.Var x2_39 (value 1.0)>
<gurobi.Var d1_79 (value 1.0)>
<gurobi.Var x2_41 (value 1.0)>
<gurobi.Var d1_83 (value 1.0)>
<gurobi.Var x2_43 (value 1.0)>
<gurobi.Var d1_87 (value 1.0)>
<gurobi.Var x2_49 (value 1.0)>
<gurobi.Var d1_99 (value 1.0)>
<gurobi.Var x2_51 (value 1.0)>
<gurobi.Var d1_103 (value 1.0)>
<gurobi.Var x2_53 (value 1.0)>
<gurobi.Var d1_107 (value 1.0)>
<gurobi.Var x2_55 (value 1.0)>
<gurobi.Var d1_111 (value 1.0)>
<gurobi.Var x2_61 (value 1.0)>
<gurobi.Var d1_123 (value 1.0)>
<gurobi.Var x2_63 (value 1.0)>
<gurobi.Var d1_127 (value 1.0)>
<gurobi.Var A2_0 (value 1.0)>
<gurobi.Var y2_1 (value 1.0)>
<gurobi.Var y2_3 (value 1.0)>
<gurobi.Var A2_2 (value 1.0)>
<gurobi.Var y2_9 (value 1.0)>
<gurobi.Var y2_11 (value 1.0)>
<gurobi.Var A2_3 (value 1.0)>
<gurobi.Var y2_13 (value 1.0)>
<gurobi.Var y2_15 (value 1.0)>
<gurobi.Var A2_8 (value 1.0)>
<gurobi.Var y2_33 (value 1.0)>
<gurobi.Var y2_35 (value 1.0)>
<gurobi.Var A2_9 (value 1.0)>
<gurobi.Var y2_37 (value 1.0)>
<gurobi.Var y2_39 (value 1.0)>
<gurobi.Var A2_10 (value 1.0)>
<gurobi.Var y2_41 (value 1.0)>
<gurobi.Var y2_43 (value 1.0)>
<gurobi.Var A2_12 (value 1.0)>
<gurobi.Var y2_49 (value 1.0)>
<gurobi.Var y2_51 (value 1.0)>
<gurobi.Var A2_13 (value 1.0)>
<gurobi.Var y2_53 (value 1.0)>
<gurobi.Var y2_55 (value 1.0)>
<gurobi.Var A2_15 (value 1.0)>
<gurobi.Var y2_61 (value 1.0)>
<gurobi.Var y2_63 (value 1.0)>
<gurobi.Var z2_1 (value 1.0)>
<gurobi.Var z2_3 (value 1.0)>
<gurobi.Var z2_9 (value 1.0)>
<gurobi.Var z2_11 (value 1.0)>
<gurobi.Var z2_13 (value 1.0)>
<gurobi.Var z2_15 (value 1.0)>
<gurobi.Var z2_33 (value 1.0)>
<gurobi.Var z2_35 (value 1.0)>
<gurobi.Var z2_37 (value 1.0)>
<gurobi.Var z2_39 (value 1.0)>
<gurobi.Var z2_41 (value 1.0)>
<gurobi.Var z2_43 (value 1.0)>
<gurobi.Var z2_49 (value 1.0)>
<gurobi.Var z2_51 (value 1.0)>
<gurobi.Var z2_53 (value 1.0)>
<gurobi.Var z2_55 (value 1.0)>
<gurobi.Var z2_61 (value 1.0)>
<gurobi.Var z2_63 (value 1.0)>
<gurobi.Var d2_3 (value 1.0)>
<gurobi.Var d2_7 (value 1.0)>
<gurobi.Var x3_5 (value 1.0)>
<gurobi.Var d2_10 (value 1.0)>
<gurobi.Var x3_7 (value 1.0)>
<gurobi.Var d2_14 (value 1.0)>
<gurobi.Var d2_19 (value 1.0)>
<gurobi.Var d2_23 (value 1.0)>
<gurobi.Var d2_27 (value 1.0)>
<gurobi.Var d2_31 (value 1.0)>
<gurobi.Var d2_67 (value 1.0)>
<gurobi.Var d2_71 (value 1.0)>
<gurobi.Var d2_75 (value 1.0)>
<gurobi.Var d2_79 (value 1.0)>
<gurobi.Var d2_83 (value 1.0)>
<gurobi.Var d2_87 (value 1.0)>
<gurobi.Var x3_45 (value 1.0)>
<gurobi.Var d2_90 (value 1.0)>
<gurobi.Var x3_47 (value 1.0)>
<gurobi.Var d2_94 (value 1.0)>
<gurobi.Var d2_99 (value 1.0)>
<gurobi.Var d2_103 (value 1.0)>
<gurobi.Var d2_107 (value 1.0)>
<gurobi.Var d2_111 (value 1.0)>
<gurobi.Var x3_57 (value 1.0)>
<gurobi.Var d2_114 (value 1.0)>
<gurobi.Var x3_59 (value 1.0)>
<gurobi.Var d2_118 (value 1.0)>
<gurobi.Var d2_123 (value 1.0)>
<gurobi.Var d2_127 (value 1.0)>
<gurobi.Var A3_1 (value 1.0)>
<gurobi.Var y3_5 (value 1.0)>
<gurobi.Var y3_7 (value 1.0)>
<gurobi.Var A3_11 (value 1.0)>
<gurobi.Var y3_45 (value 1.0)>
<gurobi.Var y3_47 (value 1.0)>
<gurobi.Var A3_14 (value 1.0)>
<gurobi.Var y3_57 (value 1.0)>
<gurobi.Var y3_59 (value 1.0)>
<gurobi.Var z3_21 (value 1.0)>
<gurobi.Var z3_23 (value 1.0)>
<gurobi.Var z3_25 (value 1.0)>
<gurobi.Var z3_27 (value 1.0)>
<gurobi.Var z3_29 (value 1.0)>
<gurobi.Var z3_31 (value 1.0)>
<gurobi.Var x4_17 (value 1.0)>
<gurobi.Var d3_34 (value 1.0)>
<gurobi.Var x4_19 (value 1.0)>
<gurobi.Var d3_38 (value 1.0)>
<gurobi.Var d3_43 (value 1.0)>
<gurobi.Var d3_47 (value 1.0)>
<gurobi.Var d3_51 (value 1.0)>
<gurobi.Var d3_55 (value 1.0)>
<gurobi.Var d3_59 (value 1.0)>
<gurobi.Var d3_63 (value 1.0)>
<gurobi.Var A4_4 (value 1.0)>
<gurobi.Var y4_17 (value 1.0)>
<gurobi.Var y4_19 (value 1.0)>
<gurobi.Var z4_17 (value 1.0)>
<gurobi.Var z4_19 (value 1.0)>
<gurobi.Var x5_21 (value 1.0)>
<gurobi.Var d4_43 (value 1.0)>
<gurobi.Var x5_23 (value 1.0)>
<gurobi.Var d4_47 (value 1.0)>
<gurobi.Var x5_25 (value 1.0)>
<gurobi.Var d4_51 (value 1.0)>
<gurobi.Var x5_27 (value 1.0)>
<gurobi.Var d4_55 (value 1.0)>
<gurobi.Var x5_29 (value 1.0)>
<gurobi.Var d4_59 (value 1.0)>
<gurobi.Var x5_31 (value 1.0)>
<gurobi.Var d4_63 (value 1.0)>
<gurobi.Var A5_5 (value 1.0)>
<gurobi.Var y5_21 (value 1.0)>
<gurobi.Var y5_23 (value 1.0)>
<gurobi.Var A5_6 (value 1.0)>
<gurobi.Var y5_25 (value 1.0)>
<gurobi.Var y5_27 (value 1.0)>
<gurobi.Var A5_7 (value 1.0)>
<gurobi.Var y5_29 (value 1.0)>
<gurobi.Var y5_31 (value 1.0)>
<gurobi.Var z5_5 (value 1.0)>
<gurobi.Var z5_7 (value 1.0)>
<gurobi.Var z5_45 (value 1.0)>
<gurobi.Var z5_47 (value 1.0)>
<gurobi.Var z5_57 (value 1.0)>
<gurobi.Var z5_59 (value 1.0)>
<gurobi.Var x6_1 (value 1.0)>
<gurobi.Var d5_3 (value 1.0)>
<gurobi.Var x6_3 (value 1.0)>
<gurobi.Var d5_7 (value 1.0)>
<gurobi.Var x6_9 (value 1.0)>
<gurobi.Var d5_19 (value 1.0)>
<gurobi.Var x6_11 (value 1.0)>
<gurobi.Var d5_23 (value 1.0)>
<gurobi.Var x6_13 (value 1.0)>
<gurobi.Var d5_27 (value 1.0)>
<gurobi.Var x6_15 (value 1.0)>
<gurobi.Var d5_31 (value 1.0)>
<gurobi.Var x6_33 (value 1.0)>
<gurobi.Var d5_67 (value 1.0)>
<gurobi.Var x6_35 (value 1.0)>
<gurobi.Var d5_71 (value 1.0)>
<gurobi.Var x6_37 (value 1.0)>
<gurobi.Var d5_75 (value 1.0)>
<gurobi.Var x6_39 (value 1.0)>
<gurobi.Var d5_79 (value 1.0)>
<gurobi.Var x6_41 (value 1.0)>
<gurobi.Var d5_83 (value 1.0)>
<gurobi.Var x6_43 (value 1.0)>
<gurobi.Var d5_87 (value 1.0)>
<gurobi.Var x6_49 (value 1.0)>
<gurobi.Var d5_99 (value 1.0)>
<gurobi.Var x6_51 (value 1.0)>
<gurobi.Var d5_103 (value 1.0)>
<gurobi.Var x6_53 (value 1.0)>
<gurobi.Var d5_107 (value 1.0)>
<gurobi.Var x6_55 (value 1.0)>
<gurobi.Var d5_111 (value 1.0)>
<gurobi.Var x6_61 (value 1.0)>
<gurobi.Var d5_123 (value 1.0)>
<gurobi.Var x6_63 (value 1.0)>
<gurobi.Var d5_127 (value 1.0)>
